Reading model...
...model read.
creating competitive generators file...
...competitive generators recorded.
Loading data...
.. real-time data read.
Compiling instance...
...instance created.
Creating Offer Mitigation (model will solve as dispatch if TRUE)...
...storage offer mitigation file created
Converting model to MPEC...
...converted
NOTE: initial MIP solve with only storage competitive to get feasible solution
Solving...

Welcome to IBM(R) ILOG(R) CPLEX(R) Interactive Optimizer 12.10.0.0
  with Simplex, Mixed Integer & Barrier Optimizers
5725-A06 5725-A29 5724-Y48 5724-Y49 5724-Y54 5724-Y55 5655-Y21
Copyright IBM Corp. 1988, 2019.  All Rights Reserved.

Type 'help' for a list of available commands.
Type 'help' followed by a command name for more
information on commands.

CPLEX> Logfile 'cplex.log' closed.
Logfile 'C:\Users\wenmi\Desktop\competitiveMPEC\logs\tmpu5qy97c9.cplex.log' open.
CPLEX> New value for parallel optimization mode: -1
CPLEX> New value for mixed integer optimality gap tolerance: 0.05
CPLEX> New value for deterministic time limit in ticks: 100000
CPLEX> Problem 'C:\Users\wenmi\Desktop\competitiveMPEC\logs\tmpmucykav6.pyomo.lp' read.
Read time = 0.33 sec. (27.41 ticks)
CPLEX> Problem name         : C:\Users\wenmi\Desktop\competitiveMPEC\logs\tmpmucykav6.pyomo.lp
Objective sense      : Maximize
Variables            :  107779  [Nneg: 1,  Box: 44054,  Free: 8928,
                                 Binary: 54796]
Objective nonzeros   :   17522
Linear constraints   :  246995  [Less: 82866,  Greater: 118424,  Equal: 45705]
  Nonzeros           :  580829
  RHS nonzeros       :  134591

Variables            : Min LB: -5000.000        Max UB: 1000000.       
Objective nonzeros   : Min   : 0.1944444        Max   : 2500.000       
Linear constraints   :
  Nonzeros           : Min   : 0.1944444        Max   : 1000000.       
  RHS nonzeros       : Min   : 0.1944444        Max   : 1000000.       
CPLEX> Version identifier: 12.10.0.0 | 2019-11-26 | 843d4de2ae
CPXPARAM_Parallel                                -1
CPXPARAM_DetTimeLimit                            100000
CPXPARAM_MIP_Tolerances_MIPGap                   0.050000000000000003
Tried aggregator 3 times.
MIP Presolve eliminated 181785 rows and 41505 columns.
MIP Presolve added 6048 rows and 0 columns.
MIP Presolve modified 48932 coefficients.
Aggregator did 25859 substitutions.
Reduced MIP has 45399 rows, 38783 columns, and 125821 nonzeros.
Reduced MIP has 15262 binaries, 0 generals, 0 SOSs, and 0 indicators.
Presolve time = 0.33 sec. (328.87 ticks)
Probing fixed 801 vars, tightened 6869 bounds.
Probing time = 0.08 sec. (14.32 ticks)
Tried aggregator 2 times.
Detecting symmetries...
MIP Presolve eliminated 1794 rows and 1602 columns.
MIP Presolve modified 5512 coefficients.
Aggregator did 48 substitutions.
Reduced MIP has 43557 rows, 37133 columns, and 120487 nonzeros.
Reduced MIP has 14461 binaries, 0 generals, 0 SOSs, and 0 indicators.
Presolve time = 0.13 sec. (206.35 ticks)
Probing fixed 0 vars, tightened 185 bounds.
Probing time = 0.16 sec. (19.42 ticks)
Clique table members: 80911.
MIP emphasis: balance optimality and feasibility.
MIP search method: dynamic search.
Parallel mode: opportunistic, using up to 16 threads.
Root relaxation solution time = 0.53 sec. (1660.97 ticks)

        Nodes                                         Cuts/
   Node  Left     Objective  IInf  Best Integer    Best Bound    ItCnt     Gap

      0     0      112.9558   143                    112.9558     9268         
*     0+    0                           55.3690      112.9558           104.01%
*     0     0      integral     0      112.9558      Fract: 1     9269    0.00%
      0     0        cutoff            112.9558      112.9558     9269    0.00%
Elapsed time = 1.88 sec. (2983.47 ticks, tree = 0.01 MB, solutions = 2)

Gomory fractional cuts applied:  1

Root node processing (before b&c):
  Real time             =    1.89 sec. (2987.99 ticks)
Parallel b&c, 16 threads:
  Real time             =    0.00 sec. (0.00 ticks)
  Sync time (average)   =    0.00 sec.
  Wait time (average)   =    0.00 sec.
                          ------------
Total (root+branch&cut) =    1.89 sec. (2987.99 ticks)

Solution pool: 2 solutions saved.

MIP - Integer optimal solution:  Objective =  1.1295581646e+02
Solution time =    1.89 sec.  Iterations = 9269  Nodes = 0
Deterministic time = 2988.30 ticks  (1580.27 ticks/sec)

CPLEX> Incumbent solution written to file 'C:\Users\wenmi\Desktop\competitiveMPEC\logs\tmp2i1opru4.cplex.sol'.
CPLEX> NOTE: no warmstart specified for MIP iteration, default behavior is true
NOTE: resolving with all competitive generators using storage-only solution to warmstart
Solving...

Welcome to IBM(R) ILOG(R) CPLEX(R) Interactive Optimizer 12.10.0.0
  with Simplex, Mixed Integer & Barrier Optimizers
5725-A06 5725-A29 5724-Y48 5724-Y49 5724-Y54 5724-Y55 5655-Y21
Copyright IBM Corp. 1988, 2019.  All Rights Reserved.

Type 'help' for a list of available commands.
Type 'help' followed by a command name for more
information on commands.

CPLEX> Logfile 'cplex.log' closed.
Logfile 'C:\Users\wenmi\Desktop\competitiveMPEC\logs\tmph6rw813f.cplex.log' open.
CPLEX> New value for parallel optimization mode: -1
CPLEX> New value for mixed integer optimality gap tolerance: 0.05
CPLEX> New value for deterministic time limit in ticks: 100000
CPLEX> Problem 'C:\Users\wenmi\Desktop\competitiveMPEC\logs\tmpgxjus7wv.pyomo.lp' read.
Read time = 0.33 sec. (27.45 ticks)
CPLEX> MIP start file 'C:\Users\wenmi\Desktop\competitiveMPEC\logs\tmprwzw47_v.cplex.mst' read.
CPLEX> Problem name         : C:\Users\wenmi\Desktop\competitiveMPEC\logs\tmpgxjus7wv.pyomo.lp
Objective sense      : Maximize
Variables            :  109219  [Nneg: 1,  Box: 45494,  Free: 8928,
                                 Binary: 54796]
Objective nonzeros   :   18914
Linear constraints   :  246995  [Less: 82866,  Greater: 118424,  Equal: 45705]
  Nonzeros           :  580829
  RHS nonzeros       :  134591

Variables            : Min LB: -5000.000        Max UB: 1000000.       
Objective nonzeros   : Min   : 0.1944444        Max   : 2500.000       
Linear constraints   :
  Nonzeros           : Min   : 0.1944444        Max   : 1000000.       
  RHS nonzeros       : Min   : 0.1944444        Max   : 1000000.       
CPLEX> Version identifier: 12.10.0.0 | 2019-11-26 | 843d4de2ae
CPXPARAM_Parallel                                -1
CPXPARAM_DetTimeLimit                            100000
CPXPARAM_MIP_Tolerances_MIPGap                   0.050000000000000003
1 of 1 MIP starts provided solutions.
MIP start 'm1' defined initial solution with objective 2077.9612.
Tried aggregator 3 times.
MIP Presolve eliminated 181785 rows and 42945 columns.
MIP Presolve added 6048 rows and 0 columns.
MIP Presolve modified 48932 coefficients.
Aggregator did 25859 substitutions.
Reduced MIP has 45399 rows, 38783 columns, and 125821 nonzeros.
Reduced MIP has 15262 binaries, 0 generals, 0 SOSs, and 0 indicators.
Presolve time = 0.33 sec. (329.58 ticks)
Probing fixed 801 vars, tightened 6869 bounds.
Probing time = 0.08 sec. (14.32 ticks)
Tried aggregator 2 times.
Detecting symmetries...
MIP Presolve eliminated 1794 rows and 1602 columns.
MIP Presolve modified 5512 coefficients.
Aggregator did 48 substitutions.
Reduced MIP has 43557 rows, 37133 columns, and 120487 nonzeros.
Reduced MIP has 14461 binaries, 0 generals, 0 SOSs, and 0 indicators.
Presolve time = 0.14 sec. (206.35 ticks)
Probing fixed 0 vars, tightened 156 bounds.
Probing time = 0.14 sec. (15.65 ticks)
Clique table members: 80438.
MIP emphasis: balance optimality and feasibility.
MIP search method: dynamic search.
Parallel mode: opportunistic, using up to 16 threads.
Root relaxation solution time = 0.59 sec. (1631.69 ticks)

        Nodes                                         Cuts/
   Node  Left     Objective  IInf  Best Integer    Best Bound    ItCnt     Gap

*     0+    0                         2077.9612   1.02212e+07              --- 
      0     0    27674.6368   376     2077.9612    27674.6368    10393     --- 
      0     0    26145.2956   376     2077.9612     Cuts: 253    11106     --- 
      0     0    25931.9397   376     2077.9612     Cuts: 486    11481     --- 
      0     0    25919.3712   376     2077.9612     Cuts: 286    11658     --- 
      0     0    25919.3712   376     2077.9612     Cuts: 150    11712     --- 
      0     0    25919.3712   376     2077.9612       Cuts: 9    11719     --- 
      0     0    25919.3712   376     2077.9612   Flowcuts: 2    11722     --- 
      0     0    25919.3712   376     2077.9612     Cuts: 137    11736     --- 
      0     2    25919.3712   346     2077.9612    25919.3712    11736     --- 
Elapsed time = 5.51 sec. (6151.30 ticks, tree = 0.02 MB, solutions = 1)
    164    31    25127.9220   323     2077.9612    25751.0286    12128     --- 
    287   105    24395.8394   226     2077.9612    25751.0286    13124     --- 
    462   140    22823.9361   160     2077.9612    25751.0286    13553     --- 
    655   225    23710.9450   191     2077.9612    25751.0286    14630     --- 
    817   345    22277.5746   177     2077.9612    25751.0286    16122     --- 
    956   753    21023.1605   206     2077.9612    25751.0286    20767     --- 
   1144   573    22013.1766   229     2077.9612    25751.0286    18647     --- 
   1317   888    21601.8756   215     2077.9612    25751.0286    22049     --- 
   1462  1050    21868.8686   200     2077.9612    25751.0286    23470     --- 
   2041  1504    22212.4461   235     2077.9612    25751.0286    28282     --- 
Elapsed time = 21.17 sec. (9262.38 ticks, tree = 17.25 MB, solutions = 1)
   2645  1998    15587.4358   109     2077.9612    25751.0286    35397     --- 
   3300  2480     7935.4427    94     2077.9612    25751.0286    49098     --- 
   4052  2792    11208.9510    90     2077.9612    25751.0286    53854     --- 
   4656  3119     5314.4063    56     2077.9612    25751.0286    58695     --- 

Performing restart 1

Repeating presolve.
Tried aggregator 3 times.
MIP Presolve eliminated 1549 rows and 1398 columns.
MIP Presolve modified 58704 coefficients.
Aggregator did 427 substitutions.
Reduced MIP has 41581 rows, 35308 columns, and 113793 nonzeros.
Reduced MIP has 13858 binaries, 0 generals, 0 SOSs, and 0 indicators.
Presolve time = 0.16 sec. (157.07 ticks)
Tried aggregator 2 times.
MIP Presolve eliminated 927 rows and 784 columns.
MIP Presolve modified 18129 coefficients.
Aggregator did 3 substitutions.
Reduced MIP has 40651 rows, 34521 columns, and 111161 nonzeros.
Reduced MIP has 13466 binaries, 0 generals, 0 SOSs, and 0 indicators.
Presolve time = 0.06 sec. (68.22 ticks)
Tried aggregator 1 time.
MIP Presolve modified 14490 coefficients.
Reduced MIP has 40651 rows, 34521 columns, and 111161 nonzeros.
Reduced MIP has 13466 binaries, 0 generals, 0 SOSs, and 0 indicators.
Presolve time = 0.09 sec. (104.73 ticks)
Represolve time = 0.97 sec. (560.82 ticks)
   4831     0    18370.7296   443     2077.9612     Cuts: 585    77793  784.07%
   4831     0    18291.1017   443     2077.9612     Cuts: 196    77919  780.24%
   4831     0    18218.4665   443     2077.9612     Cuts: 141    78063  776.75%
   4831     0    18199.3237   443     2077.9612     Cuts: 119    78178  775.83%
   4831     0    18157.8158   443     2077.9612      Cuts: 81    78262  773.83%
   4831     0    18109.3211   443     2077.9612      Cuts: 67    78346  771.49%
   4831     0    18108.4786   443     2077.9612      Cuts: 84    78386  771.45%
   4831     0    18074.5214   443     2077.9612     Cuts: 114    78481  769.82%
   4831     0    18070.2392   443     2077.9612      Cuts: 78    78523  769.61%
   4831     0    18066.4570   443     2077.9612      Cuts: 33    78557  769.43%
   4831     0    18065.4796   443     2077.9612      Cuts: 54    78609  769.38%
   4831     0    18042.8023   443     2077.9612      Cuts: 37    78656  768.29%
   4831     0    18042.7771   443     2077.9612      Cuts: 34    78675  768.29%
   4831     0    18042.1179   443     2077.9612     Cuts: 140    78723  768.26%
   4831     0    18041.4592   443     2077.9612      Cuts: 41    78758  768.23%
   4831     0    18041.4544   443     2077.9612      Cuts: 16    78772  768.23%
   4831     0    18041.4544   443     2077.9612       Cuts: 9    78782  768.23%
   4831     7    16974.3655   244     2077.9612    17863.0294    78885  759.64%
   4881    39    15493.1539   252     2077.9612    17206.0366    80660  728.02%
   4999    51    14078.8738   264     2077.9612    16784.3599    81477  707.73%
   5149    41    13349.7916   282     2077.9612    16784.3599    80777  707.73%
   5266    54    13064.7392   274     2077.9612    16784.3599    81064  707.73%
   5437    81    12692.8837   269     2077.9612    16784.3599    82661  707.73%
Elapsed time = 77.11 sec. (32378.93 ticks, tree = 1.53 MB, solutions = 1)
   5702   137     9425.5037   194     2077.9612    16784.3599    83871  707.73%
   5994   219     7879.7297   224     2077.9612    16784.3599    86879  707.73%
   6290   188    12007.4409   213     2077.9612    16754.3929    86370  706.29%
   6696   807    11347.4093   162     2077.9612    16638.7576   103450  700.73%
   7171   829    13429.6638   237     2077.9612    16638.7576   103848  700.73%
   7695  1321    13138.9033   245     2077.9612    16638.7576   114864  700.73%
   8305  1668    15738.5456   230     2077.9612    16638.7576   122729  700.73%
   8950  2052    11648.6292   253     2077.9612    16238.5982   132759  681.47%
   9561  2350    10556.7624   231     2077.9612    16076.3467   138641  673.66%
  10160  1873    12035.2064   211     2077.9612    16076.3467   128551  673.66%
Elapsed time = 122.23 sec. (41933.83 ticks, tree = 21.42 MB, solutions = 1)
  10791  2888     4857.4065   133     2077.9612    16076.3467   148579  673.66%
  11370  2922     8766.8115   205     2077.9612    16076.3467   149475  673.66%
  11931  4357     8470.9227   218     2077.9612    16076.3467   179215  673.66%
  12529  5645     5866.7765   134     2077.9612    15832.8873   203965  661.94%
  13136  4279    10983.0165   218     2077.9612    15822.4710   177832  661.44%
  13774  6848    13395.6280   267     2077.9612    15791.4152   229409  659.95%
  14412  6162    13973.5062   246     2077.9612    15791.4152   214941  659.95%
  15033  6672     9679.6308   206     2077.9612    15724.5887   226018  656.73%
  15646  6065    11389.0341   222     2077.9612    15622.6781   213191  651.83%
  16280  7080     7848.7698   120     2077.9612    15598.0084   234440  650.64%
Elapsed time = 166.89 sec. (51485.99 ticks, tree = 90.18 MB, solutions = 1)
  16965  7829     7623.6349   137     2077.9612    15431.0680   250642  642.61%
  17633  9321     6161.7265   203     2077.9612    15431.0680   280089  642.61%
  18239  8590    infeasible           2077.9612    15419.4787   265483  642.05%
  18983  9071     7149.1786   175     2077.9612    15388.2631   274337  640.55%
  19688 11168    12560.5774   256     2077.9612    15350.7912   313280  638.74%
  20484 11014     8172.3477   188     2077.9612    15350.7912   310761  638.74%
  21251 12088     5775.9929   112     2077.9612    15350.7912   329841  638.74%
  22009 11306     9948.6069   227     2077.9612    15237.3684   316094  633.28%
  22728 12279     4459.0770    24     2077.9612    15182.6377   333327  630.65%
  23465 13050    13833.9662   263     2077.9612    15182.6377   348255  630.65%
Elapsed time = 214.16 sec. (61030.84 ticks, tree = 169.31 MB, solutions = 1)
  24144 14009    13608.0054   224     2077.9612    15182.6377   364665  630.65%
  24742 13213     8826.9597   167     2077.9612    15137.3910   352217  628.47%
  25331 18190     6185.3384   123     2077.9612    15125.9184   433091  627.92%
  25911 18486    12711.0615   216     2077.9612    15068.7537   437363  625.17%
  26468 18762     8370.9180   216     2077.9612    15068.7537   442413  625.17%
  26983 17980     8016.2765   214     2077.9612    15068.7537   430339  625.17%
  27544 17355     9228.1826   209     2077.9612    15068.7537   419907  625.17%
  28172 19565     3266.9696   160     2077.9612    15068.7537   454861  625.17%
  28729 17747    11489.9540   192     2077.9612    15068.7537   426624  625.17%
  29374 19648     4223.9351   136     2077.9612    15068.7537   456354  625.17%
Elapsed time = 261.34 sec. (70577.02 ticks, tree = 257.62 MB, solutions = 1)
  30049 21734     7047.5183   179     2077.9612    14942.3820   491826  619.09%
  30667 21769     4645.8278   103     2077.9612    14942.3820   492211  619.09%
  31314 22581    10372.3723   201     2077.9612    14942.3820   506118  619.09%
  32010 21513     2745.1623    71     2077.9612    14942.3820   487692  619.09%
  32660 22641     5494.5991    65     2077.9612    14942.3820   507320  619.09%
  33310 22667    10612.0971   205     2077.9612    14927.6296   507964  618.38%
  33984 25420     5871.5285   135     2077.9612    14889.9315   552142  616.56%
  34707 22448    10445.6357   269     2077.9612    14889.9315   503674  616.56%
  35466 22791     4912.5502   106     2077.9612    14889.6839   509626  616.55%
  36170 26423    12302.0800   223     2077.9612    14847.2306   570121  614.51%
Elapsed time = 308.73 sec. (80125.66 ticks, tree = 348.30 MB, solutions = 1)
  36872 24827     4503.3869    46     2077.9612    14847.2306   541295  614.51%
  37572 25569     5746.3106   151     2077.9612    14820.2924   554479  613.21%
  38261 25022     4195.5605    84     2077.9612    14820.2924   545297  613.21%
  38915 25047        cutoff           2077.9612    14820.2924   546474  613.21%
  39603 26810    10045.2449   223     2077.9612    14820.2924   576781  613.21%
  40285 27235     9502.3091   207     2077.9612    14783.1823   584340  611.43%
  41052 31538    13538.5953   245     2077.9612    14773.0561   658306  610.94%
  41796 27850    10833.6231   257     2077.9612    14748.6149   594220  609.76%
  42523 30137    13633.7861   240     2077.9612    14748.6149   633555  609.76%
  43225 32548     5174.0648   131     2077.9612    14719.8539   675532  608.38%
Elapsed time = 355.09 sec. (89679.15 ticks, tree = 430.30 MB, solutions = 1)
  44022 31734     6689.4021   106     2077.9612    14702.6979   661518  607.55%
  44726 30892     9422.3576   194     2077.9612    14702.6979   646361  607.55%
  45364 35355     6533.7648   165     2077.9612    14702.6979   722828  607.55%
  46103 32723     5753.0891   134     2077.9612    14702.6979   678718  607.55%
  46877 32391     5585.7374   145     2077.9612    14702.6979   672642  607.55%
  47485 32190     4444.8981   144     2077.9612    14702.6979   669197  607.55%
  48010 35530     6955.8171   102     2077.9612    14702.6979   725996  607.55%
  48575 34491     9586.9167   196     2077.9612    14702.6979   707930  607.55%
  48938 35573    13099.3727   222     2077.9612    14702.6979   726310  607.55%
  49252 35632     5640.4201   128     2077.9612    14702.6979   727178  607.55%
Elapsed time = 367.94 sec. (99231.59 ticks, tree = 473.12 MB, solutions = 1)

Cover cuts applied:  6
Implied bound cuts applied:  2
Flow cuts applied:  327
Mixed integer rounding cuts applied:  76
Lift and project cuts applied:  48

Root node processing (before b&c):
  Real time             =    4.55 sec. (6020.38 ticks)
Parallel b&c, 16 threads:
  Real time             =  363.55 sec. (94002.64 ticks)
  Sync time (average)   =    2.39 sec.
  Wait time (average)   =    0.06 sec.
                          ------------
Total (root+branch&cut) =  368.09 sec. (100023.02 ticks)

Solution pool: 1 solution saved.

MIP - Deterministic time limit exceeded, integer feasible:  Objective =  2.0779611725e+03
Current MIP best bound =  1.4605140333e+04 (gap = 12527.2, 602.86%)
Solution time =  368.11 sec.  Iterations = 810610  Nodes = 49365 (40409)
Deterministic time = 100023.34 ticks  (271.72 ticks/sec)

CPLEX> Incumbent solution written to file 'C:\Users\wenmi\Desktop\competitiveMPEC\logs\tmphi9arg5w.cplex.sol'.
CPLEX> Exporting results... 
